c "565894.clq"
p edge 100 1344
e 1 17
e 1 18
e 1 19
e 1 20
e 1 21
e 1 25
e 1 28
e 1 29
e 1 32
e 1 38
e 1 43
e 1 44
e 1 50
e 1 52
e 1 53
e 1 54
e 1 62
e 1 63
e 1 66
e 1 71
e 1 72
e 1 74
e 1 78
e 1 80
e 1 89
e 1 99
e 2 17
e 2 18
e 2 19
e 2 20
e 2 21
e 2 22
e 2 23
e 2 24
e 2 27
e 2 28
e 2 29
e 2 30
e 2 35
e 2 37
e 2 41
e 2 44
e 2 47
e 2 49
e 2 55
e 2 60
e 2 61
e 2 62
e 2 78
e 2 81
e 2 84
e 2 87
e 2 96
e 2 97
e 2 100
e 3 17
e 3 18
e 3 19
e 3 20
e 3 21
e 3 22
e 3 23
e 3 24
e 3 25
e 3 27
e 3 28
e 3 30
e 3 33
e 3 35
e 3 37
e 3 38
e 3 39
e 3 42
e 3 44
e 3 47
e 3 48
e 3 49
e 3 53
e 3 58
e 3 61
e 3 64
e 3 65
e 3 72
e 3 74
e 3 77
e 3 82
e 3 89
e 3 94
e 3 98
e 4 17
e 4 18
e 4 19
e 4 20
e 4 23
e 4 24
e 4 25
e 4 26
e 4 30
e 4 32
e 4 34
e 4 39
e 4 44
e 4 46
e 4 55
e 4 60
e 4 66
e 4 68
e 4 69
e 4 83
e 4 84
e 4 87
e 4 89
e 4 92
e 4 93
e 5 17
e 5 18
e 5 19
e 5 20
e 5 22
e 5 23
e 5 26
e 5 28
e 5 30
e 5 31
e 5 32
e 5 33
e 5 34
e 5 37
e 5 39
e 5 40
e 5 45
e 5 48
e 5 51
e 5 56
e 5 60
e 5 64
e 5 85
e 5 87
e 5 92
e 6 17
e 6 18
e 6 19
e 6 20
e 6 21
e 6 22
e 6 23
e 6 24
e 6 25
e 6 26
e 6 28
e 6 29
e 6 32
e 6 34
e 6 35
e 6 36
e 6 45
e 6 48
e 6 49
e 6 55
e 6 57
e 6 61
e 6 62
e 6 65
e 6 70
e 6 73
e 6 79
e 6 91
e 6 93
e 6 95
e 6 99
e 7 17
e 7 18
e 7 19
e 7 20
e 7 21
e 7 22
e 7 26
e 7 32
e 7 38
e 7 40
e 7 45
e 7 46
e 7 48
e 7 50
e 7 58
e 7 71
e 7 78
e 7 79
e 7 80
e 7 91
e 7 93
e 7 94
e 8 17
e 8 26
e 8 39
e 8 45
e 8 51
e 8 73
e 8 78
e 8 85
e 9 17
e 9 18
e 9 19
e 9 20
e 9 21
e 9 22
e 9 24
e 9 25
e 9 27
e 9 28
e 9 33
e 9 34
e 9 37
e 9 39
e 9 40
e 9 43
e 9 45
e 9 49
e 9 51
e 9 52
e 9 54
e 9 55
e 9 61
e 9 66
e 9 70
e 9 73
e 9 80
e 9 87
e 9 92
e 9 93
e 10 17
e 10 18
e 10 19
e 10 20
e 10 23
e 10 25
e 10 26
e 10 27
e 10 33
e 10 43
e 10 47
e 10 48
e 10 54
e 10 62
e 10 71
e 10 72
e 10 77
e 10 80
e 10 83
e 10 97
e 10 98
e 11 17
e 11 18
e 11 21
e 11 22
e 11 24
e 11 25
e 11 26
e 11 27
e 11 29
e 11 31
e 11 38
e 11 42
e 11 43
e 11 46
e 11 47
e 11 48
e 11 55
e 11 68
e 11 72
e 11 77
e 11 80
e 11 90
e 11 95
e 12 17
e 12 18
e 12 19
e 12 20
e 12 21
e 12 22
e 12 23
e 12 24
e 12 26
e 12 27
e 12 29
e 12 31
e 12 33
e 12 34
e 12 35
e 12 38
e 12 41
e 12 56
e 12 63
e 12 67
e 12 69
e 12 74
e 12 85
e 12 100
e 13 17
e 13 18
e 13 19
e 13 20
e 13 21
e 13 23
e 13 24
e 13 25
e 13 28
e 13 30
e 13 36
e 13 37
e 13 39
e 13 40
e 13 41
e 13 42
e 13 43
e 13 44
e 13 45
e 13 51
e 13 53
e 13 56
e 13 60
e 13 61
e 13 64
e 13 67
e 13 69
e 13 70
e 13 73
e 13 75
e 13 78
e 13 81
e 13 85
e 13 88
e 14 17
e 14 18
e 14 19
e 14 20
e 14 21
e 14 22
e 14 23
e 14 24
e 14 27
e 14 30
e 14 31
e 14 34
e 14 35
e 14 36
e 14 38
e 14 40
e 14 41
e 14 47
e 14 49
e 14 55
e 14 65
e 14 70
e 14 71
e 14 79
e 14 84
e 14 86
e 14 93
e 14 98
e 14 100
e 15 17
e 15 18
e 15 19
e 15 21
e 15 22
e 15 29
e 15 35
e 15 43
e 15 56
e 15 61
e 15 65
e 15 85
e 16 17
e 16 18
e 16 19
e 16 20
e 16 21
e 16 22
e 16 23
e 16 25
e 16 27
e 16 28
e 16 29
e 16 30
e 16 31
e 16 32
e 16 33
e 16 34
e 16 36
e 16 37
e 16 38
e 16 40
e 16 46
e 16 49
e 16 50
e 16 58
e 16 59
e 16 65
e 16 66
e 16 67
e 16 70
e 16 72
e 16 73
e 16 75
e 16 82
e 16 92
e 16 94
e 17 18
e 17 19
e 17 20
e 17 21
e 17 22
e 17 23
e 17 24
e 17 25
e 17 26
e 17 27
e 17 28
e 17 31
e 17 32
e 17 33
e 17 34
e 17 36
e 17 37
e 17 38
e 17 39
e 17 40
e 17 41
e 17 42
e 17 43
e 17 44
e 17 45
e 17 46
e 17 48
e 17 49
e 17 50
e 17 52
e 17 53
e 17 54
e 17 56
e 17 57
e 17 59
e 17 60
e 17 63
e 17 65
e 17 67
e 17 68
e 17 71
e 17 75
e 17 77
e 17 78
e 17 80
e 17 81
e 17 84
e 17 86
e 17 89
e 17 90
e 17 98
e 17 100
e 18 19
e 18 20
e 18 21
e 18 22
e 18 23
e 18 24
e 18 26
e 18 27
e 18 28
e 18 29
e 18 32
e 18 33
e 18 34
e 18 37
e 18 39
e 18 40
e 18 41
e 18 42
e 18 43
e 18 46
e 18 48
e 18 50
e 18 53
e 18 54
e 18 57
e 18 58
e 18 60
e 18 64
e 18 66
e 18 67
e 18 68
e 18 70
e 18 72
e 18 73
e 18 77
e 18 78
e 18 81
e 18 83
e 18 84
e 18 85
e 18 88
e 18 89
e 18 96
e 18 99
e 19 20
e 19 21
e 19 22
e 19 23
e 19 24
e 19 25
e 19 26
e 19 27
e 19 30
e 19 31
e 19 33
e 19 35
e 19 38
e 19 41
e 19 43
e 19 45
e 19 51
e 19 52
e 19 55
e 19 57
e 19 58
e 19 59
e 19 60
e 19 62
e 19 63
e 19 64
e 19 68
e 19 71
e 19 76
e 19 77
e 19 79
e 19 92
e 19 99
e 20 21
e 20 22
e 20 23
e 20 24
e 20 25
e 20 27
e 20 28
e 20 29
e 20 30
e 20 32
e 20 35
e 20 36
e 20 41
e 20 42
e 20 45
e 20 48
e 20 51
e 20 52
e 20 53
e 20 58
e 20 63
e 20 67
e 20 68
e 20 69
e 20 70
e 20 72
e 20 73
e 20 77
e 20 82
e 20 84
e 20 85
e 20 88
e 20 92
e 20 95
e 20 97
e 20 99
e 21 22
e 21 23
e 21 24
e 21 25
e 21 26
e 21 28
e 21 31
e 21 32
e 21 33
e 21 37
e 21 39
e 21 41
e 21 42
e 21 46
e 21 47
e 21 50
e 21 53
e 21 56
e 21 58
e 21 60
e 21 61
e 21 62
e 21 63
e 21 72
e 21 73
e 21 79
e 21 80
e 21 81
e 21 85
e 21 90
e 22 23
e 22 24
e 22 25
e 22 26
e 22 27
e 22 28
e 22 29
e 22 30
e 22 31
e 22 33
e 22 34
e 22 36
e 22 40
e 22 42
e 22 44
e 22 49
e 22 50
e 22 51
e 22 52
e 22 53
e 22 55
e 22 59
e 22 62
e 22 65
e 22 66
e 22 70
e 22 73
e 22 79
e 22 80
e 22 82
e 22 83
e 22 84
e 22 86
e 22 92
e 22 93
e 22 95
e 22 96
e 22 97
e 23 24
e 23 25
e 23 26
e 23 27
e 23 28
e 23 29
e 23 30
e 23 31
e 23 32
e 23 34
e 23 35
e 23 36
e 23 44
e 23 47
e 23 48
e 23 51
e 23 52
e 23 54
e 23 58
e 23 60
e 23 61
e 23 64
e 23 66
e 23 68
e 23 70
e 23 76
e 23 77
e 23 78
e 23 79
e 23 83
e 23 89
e 23 91
e 23 94
e 23 96
e 23 97
e 23 98
e 23 100
e 24 25
e 24 26
e 24 27
e 24 29
e 24 30
e 24 31
e 24 32
e 24 33
e 24 35
e 24 37
e 24 38
e 24 39
e 24 40
e 24 41
e 24 42
e 24 44
e 24 46
e 24 50
e 24 57
e 24 58
e 24 59
e 24 61
e 24 68
e 24 70
e 24 71
e 24 73
e 24 74
e 24 75
e 24 77
e 24 79
e 24 80
e 24 81
e 24 82
e 24 84
e 24 85
e 24 88
e 24 91
e 24 92
e 24 100
e 25 26
e 25 28
e 25 29
e 25 30
e 25 31
e 25 33
e 25 34
e 25 36
e 25 38
e 25 40
e 25 42
e 25 44
e 25 47
e 25 49
e 25 52
e 25 53
e 25 55
e 25 56
e 25 62
e 25 63
e 25 65
e 25 68
e 25 69
e 25 71
e 25 73
e 25 78
e 25 82
e 25 83
e 25 88
e 25 90
e 25 91
e 26 27
e 26 28
e 26 29
e 26 30
e 26 31
e 26 32
e 26 34
e 26 36
e 26 41
e 26 43
e 26 44
e 26 45
e 26 46
e 26 50
e 26 52
e 26 56
e 26 58
e 26 59
e 26 63
e 26 74
e 26 81
e 26 82
e 26 85
e 26 86
e 26 87
e 26 91
e 26 92
e 27 29
e 27 30
e 27 31
e 27 32
e 27 33
e 27 34
e 27 36
e 27 40
e 27 41
e 27 42
e 27 43
e 27 45
e 27 46
e 27 49
e 27 51
e 27 52
e 27 53
e 27 54
e 27 55
e 27 57
e 27 63
e 27 66
e 27 67
e 27 76
e 27 88
e 27 91
e 27 93
e 27 98
e 27 99
e 28 29
e 28 30
e 28 35
e 28 36
e 28 37
e 28 38
e 28 40
e 28 42
e 28 43
e 28 54
e 28 55
e 28 62
e 28 71
e 28 74
e 28 80
e 29 31
e 29 32
e 29 33
e 29 35
e 29 36
e 29 38
e 29 39
e 29 40
e 29 41
e 29 43
e 29 44
e 29 45
e 29 46
e 29 49
e 29 50
e 29 54
e 29 67
e 29 68
e 29 76
e 29 80
e 29 84
e 29 89
e 29 91
e 29 92
e 29 93
e 29 94
e 30 31
e 30 32
e 30 34
e 30 35
e 30 37
e 30 39
e 30 43
e 30 44
e 30 47
e 30 48
e 30 51
e 30 54
e 30 56
e 30 57
e 30 58
e 30 60
e 30 67
e 30 69
e 30 71
e 30 72
e 30 75
e 30 77
e 30 78
e 30 81
e 30 84
e 30 86
e 30 87
e 30 95
e 30 99
e 31 33
e 31 34
e 31 35
e 31 36
e 31 37
e 31 38
e 31 45
e 31 47
e 31 49
e 31 50
e 31 51
e 31 56
e 31 61
e 31 63
e 31 64
e 31 69
e 31 75
e 31 87
e 31 91
e 31 94
e 31 100
e 32 35
e 32 36
e 32 37
e 32 38
e 32 42
e 32 43
e 32 45
e 32 51
e 32 52
e 32 59
e 32 61
e 32 64
e 32 65
e 32 66
e 32 67
e 32 72
e 32 73
e 32 75
e 32 79
e 32 82
e 32 86
e 32 88
e 32 91
e 32 95
e 33 35
e 33 36
e 33 41
e 33 42
e 33 44
e 33 46
e 33 47
e 33 49
e 33 52
e 33 55
e 33 56
e 33 57
e 33 62
e 33 63
e 33 65
e 33 66
e 33 69
e 33 71
e 33 94
e 33 97
e 33 100
e 34 37
e 34 39
e 34 40
e 34 42
e 34 46
e 34 47
e 34 48
e 34 51
e 34 55
e 34 56
e 34 68
e 34 69
e 34 73
e 34 80
e 34 82
e 34 83
e 34 87
e 34 88
e 34 94
e 34 96
e 34 100
e 35 37
e 35 39
e 35 43
e 35 46
e 35 57
e 35 59
e 35 62
e 35 63
e 35 69
e 35 74
e 35 75
e 35 76
e 35 86
e 35 89
e 35 91
e 35 92
e 36 38
e 36 42
e 36 45
e 36 53
e 36 59
e 36 60
e 36 74
e 36 83
e 36 84
e 36 93
e 37 39
e 37 40
e 37 41
e 37 45
e 37 46
e 37 48
e 37 50
e 37 56
e 37 58
e 37 63
e 37 64
e 37 67
e 37 79
e 37 81
e 37 90
e 37 93
e 37 95
e 37 96
e 37 98
e 38 39
e 38 47
e 38 50
e 38 57
e 38 60
e 38 62
e 38 67
e 38 69
e 38 71
e 38 79
e 38 85
e 38 86
e 38 92
e 38 96
e 39 41
e 39 49
e 39 50
e 39 51
e 39 52
e 39 53
e 39 59
e 39 60
e 39 63
e 39 69
e 39 71
e 39 75
e 39 87
e 40 47
e 40 50
e 40 55
e 40 57
e 40 59
e 40 67
e 40 68
e 40 70
e 40 72
e 40 74
e 40 76
e 40 79
e 40 81
e 40 97
e 41 47
e 41 48
e 41 53
e 41 54
e 41 57
e 41 62
e 41 64
e 41 66
e 41 72
e 41 78
e 41 84
e 41 85
e 41 86
e 42 44
e 42 49
e 42 53
e 42 54
e 42 55
e 42 56
e 42 59
e 42 66
e 42 83
e 42 88
e 42 98
e 43 44
e 43 47
e 43 53
e 43 54
e 43 63
e 43 65
e 43 78
e 43 85
e 43 89
e 43 90
e 43 95
e 43 97
e 44 46
e 44 48
e 44 52
e 44 62
e 44 65
e 44 67
e 44 68
e 44 72
e 44 76
e 44 82
e 44 84
e 44 86
e 44 87
e 44 88
e 44 96
e 45 48
e 45 52
e 45 54
e 45 64
e 45 73
e 45 84
e 45 85
e 45 95
e 45 97
e 45 99
e 46 49
e 46 50
e 46 51
e 46 64
e 46 70
e 46 75
e 46 89
e 46 91
e 46 94
e 47 54
e 47 66
e 47 78
e 47 83
e 47 98
e 47 99
e 48 57
e 48 67
e 48 79
e 48 81
e 48 89
e 48 92
e 48 98
e 48 99
e 49 52
e 49 54
e 49 57
e 49 58
e 49 59
e 49 61
e 49 62
e 49 64
e 49 65
e 49 70
e 49 72
e 49 74
e 49 76
e 49 97
e 50 51
e 50 55
e 50 56
e 50 58
e 50 64
e 50 65
e 50 71
e 50 74
e 50 75
e 50 76
e 50 80
e 50 89
e 51 59
e 51 61
e 51 72
e 51 73
e 51 82
e 51 83
e 51 85
e 51 86
e 51 87
e 51 88
e 51 91
e 51 94
e 51 96
e 52 53
e 52 57
e 52 59
e 52 63
e 52 74
e 52 97
e 53 56
e 53 59
e 53 75
e 53 90
e 53 100
e 54 60
e 54 64
e 54 71
e 54 80
e 54 81
e 54 85
e 54 87
e 54 90
e 54 97
e 54 100
e 55 61
e 55 69
e 55 76
e 55 77
e 55 86
e 56 57
e 56 58
e 56 61
e 56 82
e 56 95
e 56 96
e 57 58
e 57 60
e 57 65
e 57 68
e 57 70
e 57 74
e 57 75
e 57 86
e 57 90
e 57 91
e 57 95
e 58 66
e 58 69
e 58 70
e 58 74
e 58 76
e 58 95
e 58 96
e 59 60
e 59 62
e 59 66
e 59 79
e 59 86
e 59 87
e 59 88
e 59 96
e 60 61
e 60 65
e 60 75
e 60 76
e 60 77
e 60 82
e 60 83
e 60 88
e 60 90
e 60 93
e 61 64
e 61 69
e 61 73
e 61 77
e 61 90
e 61 98
e 62 67
e 62 68
e 62 74
e 63 66
e 63 68
e 63 69
e 63 76
e 63 79
e 63 81
e 63 82
e 63 93
e 63 95
e 63 98
e 65 77
e 65 80
e 65 81
e 66 86
e 66 89
e 67 70
e 67 72
e 67 82
e 67 90
e 67 93
e 67 95
e 68 71
e 68 74
e 68 75
e 68 76
e 68 78
e 68 83
e 68 95
e 68 100
e 70 75
e 70 77
e 70 94
e 71 91
e 72 76
e 72 78
e 72 99
e 73 77
e 73 79
e 73 80
e 73 94
e 73 99
e 74 89
e 74 92
e 75 76
e 75 81
e 75 82
e 75 87
e 75 90
e 76 86
e 76 88
e 77 78
e 77 94
e 77 98
e 78 83
e 78 89
e 78 96
e 79 81
e 79 84
e 79 88
e 79 89
e 80 83
e 80 84
e 80 96
e 81 90
e 81 93
e 81 98
e 81 100
e 82 83
e 82 90
e 82 91
e 82 94
e 83 96
e 83 99
e 84 87
e 84 100
e 85 87
e 85 88
e 85 94
e 86 93
e 87 90
e 87 95
e 87 99
e 88 92
e 88 93
e 88 97
e 90 97
e 90 99
e 91 92
e 91 100
e 92 94
e 92 100
e 93 97
e 93 98
e 94 97
e 95 96
e 95 98
e 96 99
